60
22 71
11 37
27 72
6 80
10 66
6 58
18 30
10 44
1 17
13 89
2 71
5 7
23 85
16 98
1 7
10 64
10 52
6 30
1 48
24 11
30 51
20 89
15 68
6 52
2 85
15 38
14 6
30 11
18 17
5 57
11 60
24 4
26 20
10 39
1 46
6 85
23 72
1 28
1 57
13 26
24 22
19 99
29 59
5 21
17 68
18 2
7 97
9 43
1 42
28 40
4 33
14 35
12 48
17 47
12 44
6 49
18 87
26 96
26 8
8 72
